set Places := s b d ;
set Nodes := 68 88 73 78 16 29 69 74 58 83 0 63 55 96 49 59 11 87 19 94 22 50 10 24 39 66 1 36 18 92 37 75 21 30 8 51 77 86 62 95 26 47 13 56 5 85 12 42 44 71 60 91 17 84 70 99 28 35 76 81 43 90 57 89 20 67 25 97 3 14 72 98 32 53 31 33 40 45 7 54 15 61 23 38 2 6 34 41 9 82 65 80 48 64 27 93 4 52 46 79 ;
set Edges:= 68-88 73-78 16-29 69-74 58-83 0-63 55-96 49-59 11-87 19-94 22-50 10-24 39-66 1-36 18-92 37-75 21-30 8-51 77-86 62-95 26-47 13-56 5-85 12-42 44-71 60-91 17-84 70-99 28-35 76-81 43-90 57-89 20-67 25-97 3-14 72-98 32-53 31-33 40-45 7-54 15-61 23-38 2-6 34-41 9-82 65-80 48-64 27-93 4-52 46-79 ;
set Trips := 0 1 2 3 4 5 6 7 8 9 10 11 12 13 14 15 16 17 18 19 20 21 22 23 24 25 26 27 28 29 30 31 32 33 34 35 36 37 38 39 40 41 42 43 44 45 46 47 48 49 50 51 52 53 54 55 56 57 58 59 60 61 62 63 64 65 66 67 68 69 70 71 72 73 74 75 76 77 78 79 80 81 82 83 84 85 86 87 88 89 90 91 92 93 94 95 96 97 98 99 100 101 102 103 104 105 106 107 108 109 110 111 112 113 114 115 116 117 118 119 120 121 122 123 124 125 126 127 128 129 130 131 132 133 134 135 136 137 138 139 140 141 142 143 144 145 146 147 148 149 150 151 152 153 154 155 156 157 158 159 160 161 162 163 164 165 166 167 168 169 170 171 172 173 174 175 176 177 178 179 180 181 182 183 184 185 186 187 188 189 190 191 192 193 194 195 196 197 198 199 200 201 ;

param Capacity :=50;
param len := 100;
